NAME : berlin52.8124.tour
COMMENT : Cost = 0_8124
COMMENT : Found by LKH [Keld Helsgaun] Thu Nov 16 16:23:53 2017
TYPE : TOUR
DIMENSION : 56
TOUR_SECTION
1
22
56
31
18
3
17
21
42
7
2
30
23
20
50
29
16
46
44
55
45
19
41
8
9
10
43
33
51
11
52
14
13
47
26
27
28
12
25
4
6
15
5
24
48
38
37
40
39
36
35
34
54
32
53
49
-1
EOF
